
===== New CPLEX run =====
Instance: /home/yorig/tuner/mpils-tests/instances/miplib/easy/mas74.mps
Config: /scratch/yorig/mpils-results-grid-seconds-5-watchdog/easy/8proc/seed-2/5_mas74_seed-2_20260504_031955/expansion/config_param_CPXPARAM_MIP_Strategy_NodeSelect_2_iter_1.prm
========================

Selected objective sense:  MINIMIZE
Selected objective  name:  obj
Selected RHS        name:  rhs
Selected bound      name:  bnd
Wall watchdog: enabled factor=1 grace=1 limit=6 seconds
Version identifier: 22.1.2.0 | 2024-11-26 | 0edbb82fd
CPXPARAM_Threads                                 8
CPXPARAM_Parallel                                1
CPXPARAM_MIP_Cuts_Cliques                        -1
CPXPARAM_MIP_Strategy_NodeSelect                 2
CPXPARAM_MIP_Cuts_FlowCovers                     -1
CPXPARAM_MIP_Cuts_Implied                        2
CPXPARAM_MIP_Cuts_Gomory                         -1
CPXPARAM_MIP_Cuts_PathCut                        1
CPXPARAM_MIP_Cuts_MIRCut                         2
CPXPARAM_MIP_Cuts_Disjunctive                    1
CPXPARAM_Emphasis_MIP                            3
CPXPARAM_TimeLimit                               5
Found incumbent of value 157344.610330 after 0.00 sec. (0.02 ticks)
Tried aggregator 1 time.
MIP Presolve eliminated 0 rows and 3 columns.
Reduced MIP has 13 rows, 148 columns, and 1682 nonzeros.
Reduced MIP has 145 binaries, 2 generals, 0 SOSs, and 0 indicators.
Presolve time = 0.00 sec. (0.84 ticks)
Probing time = 0.00 sec. (0.09 ticks)
Tried aggregator 1 time.
Detecting symmetries...
Reduced MIP has 13 rows, 148 columns, and 1682 nonzeros.
Reduced MIP has 145 binaries, 2 generals, 0 SOSs, and 0 indicators.
Presolve time = 0.00 sec. (0.79 ticks)
Probing time = 0.00 sec. (0.09 ticks)
MIP emphasis: best bound.
MIP search method: dynamic search.
Parallel mode: deterministic, using up to 8 threads.
Root relaxation solution time = 0.00 sec. (0.72 ticks)

        Nodes                                         Cuts/
   Node  Left     Objective  IInf  Best Integer    Best Bound    ItCnt     Gap

*     0+    0                       157344.6103        0.0000           100.00%
*     0+    0                        51840.4943        0.0000           100.00%
      0     0    10482.7953    12    51840.4943    10482.7953       43   79.78%
*     0+    0                        19197.4680    10482.7953            45.39%
      0     0    10526.7004    13    19197.4680   LiftProj: 1       51   45.17%
*     0+    0                        14901.6028    10526.7004            29.36%
      0     0    10529.1535    14    14901.6028   LiftProj: 1       54   29.34%
      0     0    10535.0920    15    14901.6028    MIRcuts: 1       57   29.30%
      0     0    10544.9816    16    14901.6028    MIRcuts: 1       61   29.24%
      0     0    10557.6219    17    14901.6028   LiftProj: 1       71   29.15%
*     0+    0                        14664.3328    10557.6219            28.00%
Detecting symmetries...
      0     0    10560.5647    18    14664.3328   LiftProj: 1       74   27.98%
      0     0    10563.0942    19    14664.3328   LiftProj: 1       77   27.97%
      0     0    10570.3493    19    14664.3328   LiftProj: 1       83   27.92%
      0     0    10574.8067    18    14664.3328    MIRcuts: 1       89   27.89%
      0     0    10578.3669    18    14664.3328   LiftProj: 1       97   27.86%
*     0+    0                        12914.4387    10578.3669            18.09%
      0     0    10578.5212    19    12914.4387    MIRcuts: 1       98   18.09%
*     0+    0                        12535.6727    10578.5212            15.61%
*     0+    0                        12288.9623    10587.6058            13.84%
Detecting symmetries...

Repeating presolve.
Tried aggregator 1 time.
MIP Presolve eliminated 0 rows and 42 columns.
Reduced MIP has 13 rows, 106 columns, and 1144 nonzeros.
Reduced MIP has 104 binaries, 1 generals, 0 SOSs, and 0 indicators.
Presolve time = 0.00 sec. (0.40 ticks)
Probing time = 0.00 sec. (0.06 ticks)
Tried aggregator 1 time.
Detecting symmetries...
Reduced MIP has 13 rows, 106 columns, and 1144 nonzeros.
Reduced MIP has 104 binaries, 1 generals, 0 SOSs, and 0 indicators.
Presolve time = 0.00 sec. (0.52 ticks)
Represolve time = 0.00 sec. (3.55 ticks)
Probing time = 0.00 sec. (0.06 ticks)
MIP emphasis: best bound.
MIP search method: dynamic search.
Parallel mode: deterministic, using up to 8 threads.
Root relaxation solution time = 0.00 sec. (0.82 ticks)

        Nodes                                         Cuts/
   Node  Left     Objective  IInf  Best Integer    Best Bound    ItCnt     Gap

*     0+    0                        12288.9623    10587.6058            13.84%
      0     0    10578.5212    19    12288.9623    10587.6058      147   13.84%
      0     0    10581.3826    18    12288.9623   LiftProj: 1      152   13.84%
      0     0    10581.7897    20    12288.9623   LiftProj: 1      155   13.84%
      0     0    10582.7572    20    12288.9623   LiftProj: 1      157   13.84%
      0     0    10583.2996    21    12288.9623   LiftProj: 1      158   13.84%
Detecting symmetries...
      0     2    10583.2996    21    12288.9623    10587.6058      158   13.84%
Elapsed time = 0.10 sec. (76.00 ticks, tree = 0.02 MB, solutions = 8)
*    71+    3                        12039.4680    10618.0290            11.81%

Performing restart 1

Repeating presolve.
Tried aggregator 1 time.
MIP Presolve eliminated 0 rows and 4 columns.
Reduced MIP has 13 rows, 102 columns, and 1093 nonzeros.
Reduced MIP has 100 binaries, 1 generals, 0 SOSs, and 0 indicators.
Presolve time = 0.00 sec. (0.36 ticks)
Tried aggregator 1 time.
Reduced MIP has 13 rows, 102 columns, and 1093 nonzeros.
Reduced MIP has 100 binaries, 1 generals, 0 SOSs, and 0 indicators.
Presolve time = 0.00 sec. (0.49 ticks)
Represolve time = 0.00 sec. (4.31 ticks)
   4351  1804    11047.9560    13    12039.4680    10722.9103    32632   10.94%
  11772  8595    11320.7474    12    12039.4680    10722.9103    76537   10.94%
  19800 16318    11501.0728     9    12039.4680    10722.9103   127828   10.94%
  28520 23740    11499.9499    12    12039.4680    10722.9103   175547   10.94%
* 33923+28834                        12015.0899    10722.9103            10.75%
  36662 30319    11529.9910    11    12015.0899    10722.9103   219101   10.75%
  41112 35786    11719.5257    12    12015.0899    10722.9103   255183   10.75%
  47584 40777    11437.9205    11    12015.0899    10722.9103   290038   10.75%
  56164 48777    11389.5296    12    12015.0899    10722.9103   348324   10.75%
  64719 54619    11469.7985    12    12015.0899    10722.9103   393523   10.75%

Performing restart 2

Repeating presolve.
Tried aggregator 1 time.
Reduced MIP has 13 rows, 102 columns, and 1093 nonzeros.
Reduced MIP has 100 binaries, 1 generals, 0 SOSs, and 0 indicators.
Presolve time = 0.00 sec. (0.35 ticks)
Tried aggregator 1 time.
Reduced MIP has 13 rows, 102 columns, and 1093 nonzeros.
Reduced MIP has 100 binaries, 1 generals, 0 SOSs, and 0 indicators.
Presolve time = 0.00 sec. (0.49 ticks)
Represolve time = 0.01 sec. (6.92 ticks)
  95137 18100        cutoff          12015.0899    10722.9103   572661   10.75%
Elapsed time = 2.14 sec. (3175.81 ticks, tree = 4.57 MB, solutions = 10)
*111416+30406                        12007.7367    10722.9103            10.70%
 133298 42769    11088.1802    12    12007.7367    10722.9103   806455   10.70%
 170296 64925    11385.6542    11    12007.7367    10722.9103  1022666   10.70%
 206788 84263    11437.4637    12    12007.7367    10755.1704  1226042   10.43%
 236320 100273    11709.1615     8    12007.7367    10915.4089  1402777    9.10%

Implied bound cuts applied:  0
Mixed integer rounding cuts applied:  86
Flow path cuts applied:  0
Lift and project cuts applied:  6
Disjunctive cuts applied:  0
Cone linearizations applied:  0

Root node processing (before b&c):
  Real time             =    0.09 sec. (75.96 ticks)
Parallel b&c, 8 threads:
  Real time             =    4.91 sec. (7201.58 ticks)
  Sync time (average)   =    0.65 sec.
  Wait time (average)   =    0.01 sec.
                          ------------
Total (root+branch&cut) =    5.00 sec. (7277.54 ticks)
Gap: 9.07%
Upper bound: 12007.7
Lower bound: 10918.5
Termination status: Normal
End of CPLEX run. Time: 5.00302 seconds

===== New CPLEX run =====
Instance: /home/yorig/tuner/mpils-tests/instances/miplib/easy/mas74.mps
Config: /scratch/yorig/mpils-results-grid-seconds-5-watchdog/easy/8proc/seed-2/5_mas74_seed-2_20260504_031955/expansion/config_param_CPXPARAM_MIP_Strategy_NodeSelect_3_iter_1.prm
========================

Selected objective sense:  MINIMIZE
Selected objective  name:  obj
Selected RHS        name:  rhs
Selected bound      name:  bnd
Wall watchdog: enabled factor=1 grace=1 limit=6 seconds
Version identifier: 22.1.2.0 | 2024-11-26 | 0edbb82fd
CPXPARAM_Threads                                 8
CPXPARAM_Parallel                                1
CPXPARAM_MIP_Cuts_Cliques                        -1
CPXPARAM_MIP_Strategy_NodeSelect                 3
CPXPARAM_MIP_Cuts_FlowCovers                     -1
CPXPARAM_MIP_Cuts_Implied                        2
CPXPARAM_MIP_Cuts_Gomory                         -1
CPXPARAM_MIP_Cuts_PathCut                        1
CPXPARAM_MIP_Cuts_MIRCut                         2
CPXPARAM_MIP_Cuts_Disjunctive                    1
CPXPARAM_Emphasis_MIP                            3
CPXPARAM_TimeLimit                               5
Found incumbent of value 157344.610330 after 0.00 sec. (0.02 ticks)
Tried aggregator 1 time.
MIP Presolve eliminated 0 rows and 3 columns.
Reduced MIP has 13 rows, 148 columns, and 1682 nonzeros.
Reduced MIP has 145 binaries, 2 generals, 0 SOSs, and 0 indicators.
Presolve time = 0.00 sec. (0.84 ticks)
Probing time = 0.00 sec. (0.09 ticks)
Tried aggregator 1 time.
Detecting symmetries...
Reduced MIP has 13 rows, 148 columns, and 1682 nonzeros.
Reduced MIP has 145 binaries, 2 generals, 0 SOSs, and 0 indicators.
Presolve time = 0.00 sec. (0.79 ticks)
Probing time = 0.00 sec. (0.09 ticks)
MIP emphasis: best bound.
MIP search method: dynamic search.
Parallel mode: deterministic, using up to 8 threads.
Root relaxation solution time = 0.00 sec. (0.72 ticks)

        Nodes                                         Cuts/
   Node  Left     Objective  IInf  Best Integer    Best Bound    ItCnt     Gap

*     0+    0                       157344.6103        0.0000           100.00%
*     0+    0                        51840.4943        0.0000           100.00%
      0     0    10482.7953    12    51840.4943    10482.7953       43   79.78%
*     0+    0                        19197.4680    10482.7953            45.39%
      0     0    10526.7004    13    19197.4680   LiftProj: 1       51   45.17%
*     0+    0                        14901.6028    10526.7004            29.36%
      0     0    10529.1535    14    14901.6028   LiftProj: 1       54   29.34%
      0     0    10535.0920    15    14901.6028    MIRcuts: 1       57   29.30%
      0     0    10544.9816    16    14901.6028    MIRcuts: 1       61   29.24%
      0     0    10557.6219    17    14901.6028   LiftProj: 1       71   29.15%
*     0+    0                        14664.3328    10557.6219            28.00%
Detecting symmetries...
      0     0    10560.5647    18    14664.3328   LiftProj: 1       74   27.98%
      0     0    10563.0942    19    14664.3328   LiftProj: 1       77   27.97%
      0     0    10570.3493    19    14664.3328   LiftProj: 1       83   27.92%
      0     0    10574.8067    18    14664.3328    MIRcuts: 1       89   27.89%
      0     0    10578.3669    18    14664.3328   LiftProj: 1       97   27.86%
*     0+    0                        12914.4387    10578.3669            18.09%
      0     0    10578.5212    19    12914.4387    MIRcuts: 1       98   18.09%
*     0+    0                        12535.6727    10578.5212            15.61%
*     0+    0                        12288.9623    10597.5133            13.76%
Detecting symmetries...

Repeating presolve.
Tried aggregator 1 time.
MIP Presolve eliminated 0 rows and 42 columns.
Reduced MIP has 13 rows, 106 columns, and 1144 nonzeros.
Reduced MIP has 104 binaries, 1 generals, 0 SOSs, and 0 indicators.
Presolve time = 0.00 sec. (0.40 ticks)
Probing time = 0.00 sec. (0.06 ticks)
Tried aggregator 1 time.
Detecting symmetries...
Reduced MIP has 13 rows, 106 columns, and 1144 nonzeros.
Reduced MIP has 104 binaries, 1 generals, 0 SOSs, and 0 indicators.
Presolve time = 0.00 sec. (0.52 ticks)
Represolve time = 0.00 sec. (3.55 ticks)
Probing time = 0.00 sec. (0.06 ticks)
MIP emphasis: best bound.
MIP search method: dynamic search.
Parallel mode: deterministic, using up to 8 threads.
Root relaxation solution time = 0.00 sec. (0.82 ticks)

        Nodes                                         Cuts/
   Node  Left     Objective  IInf  Best Integer    Best Bound    ItCnt     Gap

*     0+    0                        12288.9623    10597.5133            13.76%
      0     0    10578.5212    19    12288.9623    10597.5133      147   13.76%
      0     0    10581.3826    18    12288.9623   LiftProj: 1      152   13.76%
      0     0    10581.7897    20    12288.9623   LiftProj: 1      155   13.76%
      0     0    10582.7572    20    12288.9623   LiftProj: 1      157   13.76%
Detecting symmetries...
      0     2    10582.7572    20    12288.9623    10597.5133      157   13.76%
Elapsed time = 0.09 sec. (73.13 ticks, tree = 0.02 MB, solutions = 8)
*    10+    2                        12180.1000    10599.0199            12.98%

Performing restart 1

Repeating presolve.
Tried aggregator 1 time.
MIP Presolve eliminated 0 rows and 2 columns.
Reduced MIP has 13 rows, 104 columns, and 1119 nonzeros.
Reduced MIP has 102 binaries, 1 generals, 0 SOSs, and 0 indicators.
Presolve time = 0.00 sec. (0.37 ticks)
Tried aggregator 1 time.
Reduced MIP has 13 rows, 104 columns, and 1119 nonzeros.
Reduced MIP has 102 binaries, 1 generals, 0 SOSs, and 0 indicators.
Presolve time = 0.00 sec. (0.50 ticks)
Represolve time = 0.01 sec. (7.10 ticks)
   8414   331    11059.3951    12    12180.1000    10648.0230    39589   12.58%
  16646  7016    11468.6062    10    12180.1000    10652.0400    82269   12.55%
  25806 14298    11866.4818     9    12180.1000    10652.0400   129839   12.55%
  35110 23761    11723.0644    10    12180.1000    10655.4591   194476   12.52%
  43290 30404    11612.6521    12    12180.1000    10679.0610   243292   12.32%
  48466 29874    12162.3704     8    12180.1000    10679.0610   239486   12.32%
* 55427+36714                        12051.2263    10679.0610            11.39%
  57934 38344    11989.7097    11    12051.2263    10679.0610   303336   11.39%
  67157 45609    11633.9018    11    12051.2263    10679.0610   390112   11.39%
  76992 50177    11457.5539    12    12051.2263    10679.0610   431008   11.39%
 114872 73405    11844.9653    12    12051.2263    10686.1557   644278   11.33%
Elapsed time = 2.07 sec. (3172.82 ticks, tree = 18.90 MB, solutions = 10)

Performing restart 2

Repeating presolve.
Tried aggregator 1 time.
MIP Presolve eliminated 0 rows and 1 columns.
Reduced MIP has 13 rows, 103 columns, and 1106 nonzeros.
Reduced MIP has 101 binaries, 1 generals, 0 SOSs, and 0 indicators.
Presolve time = 0.00 sec. (0.37 ticks)
Tried aggregator 1 time.
Reduced MIP has 13 rows, 103 columns, and 1106 nonzeros.
Reduced MIP has 101 binaries, 1 generals, 0 SOSs, and 0 indicators.
Presolve time = 0.00 sec. (0.50 ticks)
Represolve time = 0.02 sec. (8.89 ticks)
 144329  2708        cutoff          12051.2263    10701.9781   862659   11.20%
 180651 30938    11607.2842    12    12051.2263    10701.9781  1063011   11.20%
 220137 57284    11478.7213    11    12051.2263    10701.9781  1299455   11.20%
 258258 79710    11866.2681    11    12051.2263    10701.9781  1521918   11.20%
*259131+80261                        12007.7367    10701.9781            10.87%

Cover cuts applied:  2
Implied bound cuts applied:  0
Mixed integer rounding cuts applied:  81
Flow path cuts applied:  0
Lift and project cuts applied:  5
Disjunctive cuts applied:  0
Cone linearizations applied:  0

Root node processing (before b&c):
  Real time             =    0.08 sec. (73.09 ticks)
Parallel b&c, 8 threads:
  Real time             =    4.92 sec. (7489.73 ticks)
  Sync time (average)   =    0.51 sec.
  Wait time (average)   =    0.01 sec.
                          ------------
Total (root+branch&cut) =    5.00 sec. (7562.82 ticks)
Gap: 10.87%
Upper bound: 12007.7
Lower bound: 10702
Termination status: Normal
End of CPLEX run. Time: 5.00292 seconds
